5 5
7 1 3 11 5 3 2 1 10 5 2 4 9 2 12 4 3 4 1 12 4 5 2 20 4 4 19 2 5 5 19 1 10 2 1 6 4 14 4 4 20 2 4 1 19 3 9 4 4 16 3 15 5 5 2 17
7 3 1 9 3 5 2 8 2 4 8 5 12 1 2 2 2 5 9 1 10 2 1 18 2 13 4 5 3 2 2 4 2 1 6 3 3 20 1 13 4 2
4 4 5 2 2 5 4 10 3 19 2 3 11 2 5 3 1 13 5 19 3 19 5 2 9 3 19 1 11 4 14 5 3
5 4 3 5 5 12 2 19 4 13 2 2 12 4 12 1 4 2 3 3 4 1 17 2 15 1 5 8
8 1 3 17 2 3 15 2 4 2 2 12 5 7 3 4 20 5 17 3 13 3 3 2 5 4 4 16 3 4 17 2 14 1 19 3 1 14 4 14 2 16 2 2 7 1 5